c nIsolatedPIs 112
c maxPI 144
p cnf 497 1060
c gate 145 69 141 0
69 -145 0
141 -145 0
-69 -141 145 0
c gate 146 70 142 0
70 -146 0
142 -146 0
-70 -142 146 0
c gate 147 -145 -146 0
-145 -147 0
-146 -147 0
145 146 147 0
c gate 148 -69 -141 0
-69 -148 0
-141 -148 0
69 141 148 0
c gate 149 60 132 0
60 -149 0
132 -149 0
-60 -132 149 0
c gate 150 -60 -132 0
-60 -150 0
-132 -150 0
60 132 150 0
c gate 151 59 131 0
59 -151 0
131 -151 0
-59 -131 151 0
c gate 152 -150 151 0
-150 -152 0
151 -152 0
150 -151 152 0
c gate 153 -149 -152 0
-149 -153 0
-152 -153 0
149 152 153 0
c gate 154 58 130 0
58 -154 0
130 -154 0
-58 -130 154 0
c gate 155 57 129 0
57 -155 0
129 -155 0
-57 -129 155 0
c gate 156 -154 -155 0
-154 -156 0
-155 -156 0
154 155 156 0
c gate 157 -58 -130 0
-58 -157 0
-130 -157 0
58 130 157 0
c gate 158 -59 -131 0
-59 -158 0
-131 -158 0
59 131 158 0
c gate 159 -150 -158 0
-150 -159 0
-158 -159 0
150 158 159 0
c gate 160 -157 159 0
-157 -160 0
159 -160 0
157 -159 160 0
c gate 161 153 160 0
153 -161 0
160 -161 0
-153 -160 161 0
c gate 162 -156 161 0
-156 -162 0
161 -162 0
156 -161 162 0
c gate 163 153 -162 0
153 -163 0
-162 -163 0
-153 162 163 0
c gate 164 -62 -134 0
-62 -164 0
-134 -164 0
62 134 164 0
c gate 165 -63 -135 0
-63 -165 0
-135 -165 0
63 135 165 0
c gate 166 -164 -165 0
-164 -166 0
-165 -166 0
164 165 166 0
c gate 167 63 135 0
63 -167 0
135 -167 0
-63 -135 167 0
c gate 168 64 136 0
64 -168 0
136 -168 0
-64 -136 168 0
c gate 169 -167 -168 0
-167 -169 0
-168 -169 0
167 168 169 0
c gate 170 -64 -136 0
-64 -170 0
-136 -170 0
64 136 170 0
c gate 171 169 -170 0
169 -171 0
-170 -171 0
-169 170 171 0
c gate 172 166 171 0
166 -172 0
171 -172 0
-166 -171 172 0
c gate 173 61 133 0
61 -173 0
133 -173 0
-61 -133 173 0
c gate 174 62 134 0
62 -174 0
134 -174 0
-62 -134 174 0
c gate 175 -173 -174 0
-173 -175 0
-174 -175 0
173 174 175 0
c gate 176 -61 -133 0
-61 -176 0
-133 -176 0
61 133 176 0
c gate 177 175 -176 0
175 -177 0
-176 -177 0
-175 176 177 0
c gate 178 172 177 0
172 -178 0
177 -178 0
-172 -177 178 0
c gate 179 -163 178 0
-163 -179 0
178 -179 0
163 -178 179 0
c gate 180 166 -175 0
166 -180 0
-175 -180 0
-166 175 180 0
c gate 181 169 -180 0
169 -181 0
-180 -181 0
-169 180 181 0
c gate 182 -170 -181 0
-170 -182 0
-181 -182 0
170 181 182 0
c gate 183 -179 -182 0
-179 -183 0
-182 -183 0
179 182 183 0
c gate 184 68 140 0
68 -184 0
140 -184 0
-68 -140 184 0
c gate 185 -68 -140 0
-68 -185 0
-140 -185 0
68 140 185 0
c gate 186 67 139 0
67 -186 0
139 -186 0
-67 -139 186 0
c gate 187 -185 186 0
-185 -187 0
186 -187 0
185 -186 187 0
c gate 188 -184 -187 0
-184 -188 0
-187 -188 0
184 187 188 0
c gate 189 -66 -138 0
-66 -189 0
-138 -189 0
66 138 189 0
c gate 190 -67 -139 0
-67 -190 0
-139 -190 0
67 139 190 0
c gate 191 -185 -190 0
-185 -191 0
-190 -191 0
185 190 191 0
c gate 192 -189 191 0
-189 -192 0
191 -192 0
189 -191 192 0
c gate 193 188 192 0
188 -193 0
192 -193 0
-188 -192 193 0
c gate 194 -65 -137 0
-65 -194 0
-137 -194 0
65 137 194 0
c gate 195 66 138 0
66 -195 0
138 -195 0
-66 -138 195 0
c gate 196 65 137 0
65 -196 0
137 -196 0
-65 -137 196 0
c gate 197 -195 -196 0
-195 -197 0
-196 -197 0
195 196 197 0
c gate 198 -194 197 0
-194 -198 0
197 -198 0
194 -197 198 0
c gate 199 193 198 0
193 -199 0
198 -199 0
-193 -198 199 0
c gate 200 -183 199 0
-183 -200 0
199 -200 0
183 -199 200 0
c gate 201 193 -197 0
193 -201 0
-197 -201 0
-193 197 201 0
c gate 202 188 -201 0
188 -202 0
-201 -202 0
-188 201 202 0
c gate 203 -200 202 0
-200 -203 0
202 -203 0
200 -202 203 0
c gate 204 -148 -203 0
-148 -204 0
-203 -204 0
148 203 204 0
c gate 205 147 -204 0
147 -205 0
-204 -205 0
-147 204 205 0
c gate 206 -56 -128 0
-56 -206 0
-128 -206 0
56 128 206 0
c gate 207 56 128 0
56 -207 0
128 -207 0
-56 -128 207 0
c gate 208 55 127 0
55 -208 0
127 -208 0
-55 -127 208 0
c gate 209 -207 -208 0
-207 -209 0
-208 -209 0
207 208 209 0
c gate 210 -55 -127 0
-55 -210 0
-127 -210 0
55 127 210 0
c gate 211 -54 -126 0
-54 -211 0
-126 -211 0
54 126 211 0
c gate 212 -210 -211 0
-210 -212 0
-211 -212 0
210 211 212 0
c gate 213 54 126 0
54 -213 0
126 -213 0
-54 -126 213 0
c gate 214 53 125 0
53 -214 0
125 -214 0
-53 -125 214 0
c gate 215 -213 -214 0
-213 -215 0
-214 -215 0
213 214 215 0
c gate 216 -53 -125 0
-53 -216 0
-125 -216 0
53 125 216 0
c gate 217 49 121 0
49 -217 0
121 -217 0
-49 -121 217 0
c gate 218 50 122 0
50 -218 0
122 -218 0
-50 -122 218 0
c gate 219 -217 -218 0
-217 -219 0
-218 -219 0
217 218 219 0
c gate 220 -51 -123 0
-51 -220 0
-123 -220 0
51 123 220 0
c gate 221 -50 -122 0
-50 -221 0
-122 -221 0
50 122 221 0
c gate 222 -52 -124 0
-52 -222 0
-124 -222 0
52 124 222 0
c gate 223 -221 -222 0
-221 -223 0
-222 -223 0
221 222 223 0
c gate 224 -220 223 0
-220 -224 0
223 -224 0
220 -223 224 0
c gate 225 -219 224 0
-219 -225 0
224 -225 0
219 -224 225 0
c gate 226 52 124 0
52 -226 0
124 -226 0
-52 -124 226 0
c gate 227 51 123 0
51 -227 0
123 -227 0
-51 -123 227 0
c gate 228 -222 227 0
-222 -228 0
227 -228 0
222 -227 228 0
c gate 229 -226 -228 0
-226 -229 0
-228 -229 0
226 228 229 0
c gate 230 -225 229 0
-225 -230 0
229 -230 0
225 -229 230 0
c gate 231 -216 -230 0
-216 -231 0
-230 -231 0
216 230 231 0
c gate 232 215 -231 0
215 -232 0
-231 -232 0
-215 231 232 0
c gate 233 212 -232 0
212 -233 0
-232 -233 0
-212 232 233 0
c gate 234 209 -233 0
209 -234 0
-233 -234 0
-209 233 234 0
c gate 235 -206 -234 0
-206 -235 0
-234 -235 0
206 234 235 0
c gate 236 48 120 0
48 -236 0
120 -236 0
-48 -120 236 0
c gate 237 -48 -120 0
-48 -237 0
-120 -237 0
48 120 237 0
c gate 238 47 119 0
47 -238 0
119 -238 0
-47 -119 238 0
c gate 239 -237 238 0
-237 -239 0
238 -239 0
237 -238 239 0
c gate 240 -236 -239 0
-236 -240 0
-239 -240 0
236 239 240 0
c gate 241 -46 -118 0
-46 -241 0
-118 -241 0
46 118 241 0
c gate 242 -47 -119 0
-47 -242 0
-119 -242 0
47 119 242 0
c gate 243 -237 -242 0
-237 -243 0
-242 -243 0
237 242 243 0
c gate 244 -241 243 0
-241 -244 0
243 -244 0
241 -243 244 0
c gate 245 240 244 0
240 -245 0
244 -245 0
-240 -244 245 0
c gate 246 -45 -117 0
-45 -246 0
-117 -246 0
45 117 246 0
c gate 247 46 118 0
46 -247 0
118 -247 0
-46 -118 247 0
c gate 248 45 117 0
45 -248 0
117 -248 0
-45 -117 248 0
c gate 249 -247 -248 0
-247 -249 0
-248 -249 0
247 248 249 0
c gate 250 -246 249 0
-246 -250 0
249 -250 0
246 -249 250 0
c gate 251 245 250 0
245 -251 0
250 -251 0
-245 -250 251 0
c gate 252 44 116 0
44 -252 0
116 -252 0
-44 -116 252 0
c gate 253 -44 -116 0
-44 -253 0
-116 -253 0
44 116 253 0
c gate 254 43 115 0
43 -254 0
115 -254 0
-43 -115 254 0
c gate 255 -253 254 0
-253 -255 0
254 -255 0
253 -254 255 0
c gate 256 -252 -255 0
-252 -256 0
-255 -256 0
252 255 256 0
c gate 257 -42 -114 0
-42 -257 0
-114 -257 0
42 114 257 0
c gate 258 -43 -115 0
-43 -258 0
-115 -258 0
43 115 258 0
c gate 259 -253 -258 0
-253 -259 0
-258 -259 0
253 258 259 0
c gate 260 -257 259 0
-257 -260 0
259 -260 0
257 -259 260 0
c gate 261 256 260 0
256 -261 0
260 -261 0
-256 -260 261 0
c gate 262 42 114 0
42 -262 0
114 -262 0
-42 -114 262 0
c gate 263 41 113 0
41 -263 0
113 -263 0
-41 -113 263 0
c gate 264 -262 -263 0
-262 -264 0
-263 -264 0
262 263 264 0
c gate 265 261 -264 0
261 -265 0
-264 -265 0
-261 264 265 0
c gate 266 256 -265 0
256 -266 0
-265 -266 0
-256 265 266 0
c gate 267 251 -266 0
251 -267 0
-266 -267 0
-251 266 267 0
c gate 268 245 -249 0
245 -268 0
-249 -268 0
-245 249 268 0
c gate 269 240 -268 0
240 -269 0
-268 -269 0
-240 268 269 0
c gate 270 -267 269 0
-267 -270 0
269 -270 0
267 -269 270 0
c gate 271 209 212 0
209 -271 0
212 -271 0
-209 -212 271 0
c gate 272 215 219 0
215 -272 0
219 -272 0
-215 -219 272 0
c gate 273 271 272 0
271 -273 0
272 -273 0
-271 -272 273 0
c gate 274 -49 -121 0
-49 -274 0
-121 -274 0
49 121 274 0
c gate 275 -206 -216 0
-206 -275 0
-216 -275 0
206 216 275 0
c gate 276 -274 275 0
-274 -276 0
275 -276 0
274 -275 276 0
c gate 277 224 276 0
224 -277 0
276 -277 0
-224 -276 277 0
c gate 278 229 277 0
229 -278 0
277 -278 0
-229 -277 278 0
c gate 279 273 278 0
273 -279 0
278 -279 0
-273 -278 279 0
c gate 280 -270 279 0
-270 -280 0
279 -280 0
270 -279 280 0
c gate 281 -235 -280 0
-235 -281 0
-280 -281 0
235 280 281 0
c gate 282 -40 -112 0
-40 -282 0
-112 -282 0
40 112 282 0
c gate 283 40 112 0
40 -283 0
112 -283 0
-40 -112 283 0
c gate 284 39 111 0
39 -284 0
111 -284 0
-39 -111 284 0
c gate 285 -283 -284 0
-283 -285 0
-284 -285 0
283 284 285 0
c gate 286 -39 -111 0
-39 -286 0
-111 -286 0
39 111 286 0
c gate 287 -38 -110 0
-38 -287 0
-110 -287 0
38 110 287 0
c gate 288 -286 -287 0
-286 -288 0
-287 -288 0
286 287 288 0
c gate 289 38 110 0
38 -289 0
110 -289 0
-38 -110 289 0
c gate 290 37 109 0
37 -290 0
109 -290 0
-37 -109 290 0
c gate 291 -289 -290 0
-289 -291 0
-290 -291 0
289 290 291 0
c gate 292 -37 -109 0
-37 -292 0
-109 -292 0
37 109 292 0
c gate 293 33 105 0
33 -293 0
105 -293 0
-33 -105 293 0
c gate 294 34 106 0
34 -294 0
106 -294 0
-34 -106 294 0
c gate 295 -293 -294 0
-293 -295 0
-294 -295 0
293 294 295 0
c gate 296 -35 -107 0
-35 -296 0
-107 -296 0
35 107 296 0
c gate 297 -34 -106 0
-34 -297 0
-106 -297 0
34 106 297 0
c gate 298 -36 -108 0
-36 -298 0
-108 -298 0
36 108 298 0
c gate 299 -297 -298 0
-297 -299 0
-298 -299 0
297 298 299 0
c gate 300 -296 299 0
-296 -300 0
299 -300 0
296 -299 300 0
c gate 301 -295 300 0
-295 -301 0
300 -301 0
295 -300 301 0
c gate 302 36 108 0
36 -302 0
108 -302 0
-36 -108 302 0
c gate 303 35 107 0
35 -303 0
107 -303 0
-35 -107 303 0
c gate 304 -298 303 0
-298 -304 0
303 -304 0
298 -303 304 0
c gate 305 -302 -304 0
-302 -305 0
-304 -305 0
302 304 305 0
c gate 306 -301 305 0
-301 -306 0
305 -306 0
301 -305 306 0
c gate 307 -292 -306 0
-292 -307 0
-306 -307 0
292 306 307 0
c gate 308 291 -307 0
291 -308 0
-307 -308 0
-291 307 308 0
c gate 309 288 -308 0
288 -309 0
-308 -309 0
-288 308 309 0
c gate 310 285 -309 0
285 -310 0
-309 -310 0
-285 309 310 0
c gate 311 -282 -310 0
-282 -311 0
-310 -311 0
282 310 311 0
c gate 312 285 288 0
285 -312 0
288 -312 0
-285 -288 312 0
c gate 313 291 295 0
291 -313 0
295 -313 0
-291 -295 313 0
c gate 314 312 313 0
312 -314 0
313 -314 0
-312 -313 314 0
c gate 315 -33 -105 0
-33 -315 0
-105 -315 0
33 105 315 0
c gate 316 -282 -292 0
-282 -316 0
-292 -316 0
282 292 316 0
c gate 317 -315 316 0
-315 -317 0
316 -317 0
315 -316 317 0
c gate 318 300 317 0
300 -318 0
317 -318 0
-300 -317 318 0
c gate 319 305 318 0
305 -319 0
318 -319 0
-305 -318 319 0
c gate 320 314 319 0
314 -320 0
319 -320 0
-314 -319 320 0
c gate 321 -32 -104 0
-32 -321 0
-104 -321 0
32 104 321 0
c gate 322 32 104 0
32 -322 0
104 -322 0
-32 -104 322 0
c gate 323 31 103 0
31 -323 0
103 -323 0
-31 -103 323 0
c gate 324 -322 -323 0
-322 -324 0
-323 -324 0
322 323 324 0
c gate 325 -31 -103 0
-31 -325 0
-103 -325 0
31 103 325 0
c gate 326 -30 -102 0
-30 -326 0
-102 -326 0
30 102 326 0
c gate 327 -325 -326 0
-325 -327 0
-326 -327 0
325 326 327 0
c gate 328 30 102 0
30 -328 0
102 -328 0
-30 -102 328 0
c gate 329 29 101 0
29 -329 0
101 -329 0
-29 -101 329 0
c gate 330 -328 -329 0
-328 -330 0
-329 -330 0
328 329 330 0
c gate 331 -29 -101 0
-29 -331 0
-101 -331 0
29 101 331 0
c gate 332 28 100 0
28 -332 0
100 -332 0
-28 -100 332 0
c gate 333 -28 -100 0
-28 -333 0
-100 -333 0
28 100 333 0
c gate 334 27 -333 0
27 -334 0
-333 -334 0
-27 333 334 0
c gate 335 99 334 0
99 -335 0
334 -335 0
-99 -334 335 0
c gate 336 -332 -335 0
-332 -336 0
-335 -336 0
332 335 336 0
c gate 337 99 -333 0
99 -337 0
-333 -337 0
-99 333 337 0
c gate 338 -334 -337 0
-334 -338 0
-337 -338 0
334 337 338 0
c gate 339 25 97 0
25 -339 0
97 -339 0
-25 -97 339 0
c gate 340 26 98 0
26 -340 0
98 -340 0
-26 -98 340 0
c gate 341 -339 -340 0
-339 -341 0
-340 -341 0
339 340 341 0
c gate 342 -26 -98 0
-26 -342 0
-98 -342 0
26 98 342 0
c gate 343 -341 -342 0
-341 -343 0
-342 -343 0
341 342 343 0
c gate 344 -338 343 0
-338 -344 0
343 -344 0
338 -343 344 0
c gate 345 336 -344 0
336 -345 0
-344 -345 0
-336 344 345 0
c gate 346 -331 -345 0
-331 -346 0
-345 -346 0
331 345 346 0
c gate 347 330 -346 0
330 -347 0
-346 -347 0
-330 346 347 0
c gate 348 327 -347 0
327 -348 0
-347 -348 0
-327 347 348 0
c gate 349 324 -348 0
324 -349 0
-348 -349 0
-324 348 349 0
c gate 350 -321 -349 0
-321 -350 0
-349 -350 0
321 349 350 0
c gate 351 324 341 0
324 -351 0
341 -351 0
-324 -341 351 0
c gate 352 327 330 0
327 -352 0
330 -352 0
-327 -330 352 0
c gate 353 351 352 0
351 -353 0
352 -353 0
-351 -352 353 0
c gate 354 -331 -342 0
-331 -354 0
-342 -354 0
331 342 354 0
c gate 355 -25 -97 0
-25 -355 0
-97 -355 0
25 97 355 0
c gate 356 -321 -355 0
-321 -356 0
-355 -356 0
321 355 356 0
c gate 357 354 356 0
354 -357 0
356 -357 0
-354 -356 357 0
c gate 358 -338 357 0
-338 -358 0
357 -358 0
338 -357 358 0
c gate 359 353 358 0
353 -359 0
358 -359 0
-353 -358 359 0
c gate 360 336 359 0
336 -360 0
359 -360 0
-336 -359 360 0
c gate 361 2 74 0
2 -361 0
74 -361 0
-2 -74 361 0
c gate 362 1 73 0
1 -362 0
73 -362 0
-1 -73 362 0
c gate 363 -361 -362 0
-361 -363 0
-362 -363 0
361 362 363 0
c gate 364 -3 -75 0
-3 -364 0
-75 -364 0
3 75 364 0
c gate 365 -2 -74 0
-2 -365 0
-74 -365 0
2 74 365 0
c gate 366 -364 -365 0
-364 -366 0
-365 -366 0
364 365 366 0
c gate 367 -363 366 0
-363 -367 0
366 -367 0
363 -366 367 0
c gate 368 4 76 0
4 -368 0
76 -368 0
-4 -76 368 0
c gate 369 3 75 0
3 -369 0
75 -369 0
-3 -75 369 0
c gate 370 -368 -369 0
-368 -370 0
-369 -370 0
368 369 370 0
c gate 371 -367 370 0
-367 -371 0
370 -371 0
367 -370 371 0
c gate 372 -4 -76 0
-4 -372 0
-76 -372 0
4 76 372 0
c gate 373 -5 -77 0
-5 -373 0
-77 -373 0
5 77 373 0
c gate 374 -372 -373 0
-372 -374 0
-373 -374 0
372 373 374 0
c gate 375 -371 374 0
-371 -375 0
374 -375 0
371 -374 375 0
c gate 376 6 78 0
6 -376 0
78 -376 0
-6 -78 376 0
c gate 377 5 77 0
5 -377 0
77 -377 0
-5 -77 377 0
c gate 378 -376 -377 0
-376 -378 0
-377 -378 0
376 377 378 0
c gate 379 -375 378 0
-375 -379 0
378 -379 0
375 -378 379 0
c gate 380 -7 -79 0
-7 -380 0
-79 -380 0
7 79 380 0
c gate 381 -6 -78 0
-6 -381 0
-78 -381 0
6 78 381 0
c gate 382 -380 -381 0
-380 -382 0
-381 -382 0
380 381 382 0
c gate 383 -379 382 0
-379 -383 0
382 -383 0
379 -382 383 0
c gate 384 8 80 0
8 -384 0
80 -384 0
-8 -80 384 0
c gate 385 7 79 0
7 -385 0
79 -385 0
-7 -79 385 0
c gate 386 -384 -385 0
-384 -386 0
-385 -386 0
384 385 386 0
c gate 387 -383 386 0
-383 -387 0
386 -387 0
383 -386 387 0
c gate 388 -9 -81 0
-9 -388 0
-81 -388 0
9 81 388 0
c gate 389 -8 -80 0
-8 -389 0
-80 -389 0
8 80 389 0
c gate 390 -388 -389 0
-388 -390 0
-389 -390 0
388 389 390 0
c gate 391 -387 390 0
-387 -391 0
390 -391 0
387 -390 391 0
c gate 392 10 82 0
10 -392 0
82 -392 0
-10 -82 392 0
c gate 393 9 81 0
9 -393 0
81 -393 0
-9 -81 393 0
c gate 394 -392 -393 0
-392 -394 0
-393 -394 0
392 393 394 0
c gate 395 -391 394 0
-391 -395 0
394 -395 0
391 -394 395 0
c gate 396 -10 -82 0
-10 -396 0
-82 -396 0
10 82 396 0
c gate 397 -12 -84 0
-12 -397 0
-84 -397 0
12 84 397 0
c gate 398 -11 -83 0
-11 -398 0
-83 -398 0
11 83 398 0
c gate 399 -397 -398 0
-397 -399 0
-398 -399 0
397 398 399 0
c gate 400 -396 399 0
-396 -400 0
399 -400 0
396 -399 400 0
c gate 401 -395 400 0
-395 -401 0
400 -401 0
395 -400 401 0
c gate 402 12 84 0
12 -402 0
84 -402 0
-12 -84 402 0
c gate 403 11 83 0
11 -403 0
83 -403 0
-11 -83 403 0
c gate 404 -397 403 0
-397 -404 0
403 -404 0
397 -403 404 0
c gate 405 -402 -404 0
-402 -405 0
-404 -405 0
402 404 405 0
c gate 406 -401 405 0
-401 -406 0
405 -406 0
401 -405 406 0
c gate 407 -14 -86 0
-14 -407 0
-86 -407 0
14 86 407 0
c gate 408 -15 -87 0
-15 -408 0
-87 -408 0
15 87 408 0
c gate 409 -407 -408 0
-407 -409 0
-408 -409 0
407 408 409 0
c gate 410 14 86 0
14 -410 0
86 -410 0
-14 -86 410 0
c gate 411 13 85 0
13 -411 0
85 -411 0
-13 -85 411 0
c gate 412 -410 -411 0
-410 -412 0
-411 -412 0
410 411 412 0
c gate 413 -13 -85 0
-13 -413 0
-85 -413 0
13 85 413 0
c gate 414 412 -413 0
412 -414 0
-413 -414 0
-412 413 414 0
c gate 415 409 414 0
409 -415 0
414 -415 0
-409 -414 415 0
c gate 416 -406 415 0
-406 -416 0
415 -416 0
406 -415 416 0
c gate 417 409 -412 0
409 -417 0
-412 -417 0
-409 412 417 0
c gate 418 15 87 0
15 -418 0
87 -418 0
-15 -87 418 0
c gate 419 16 88 0
16 -419 0
88 -419 0
-16 -88 419 0
c gate 420 -418 -419 0
-418 -420 0
-419 -420 0
418 419 420 0
c gate 421 -417 420 0
-417 -421 0
420 -421 0
417 -420 421 0
c gate 422 -416 421 0
-416 -422 0
421 -422 0
416 -421 422 0
c gate 423 -20 -92 0
-20 -423 0
-92 -423 0
20 92 423 0
c gate 424 19 -423 0
19 -424 0
-423 -424 0
-19 423 424 0
c gate 425 91 -423 0
91 -425 0
-423 -425 0
-91 423 425 0
c gate 426 -424 -425 0
-424 -426 0
-425 -426 0
424 425 426 0
c gate 427 -17 -89 0
-17 -427 0
-89 -427 0
17 89 427 0
c gate 428 -16 -88 0
-16 -428 0
-88 -428 0
16 88 428 0
c gate 429 -21 -93 0
-21 -429 0
-93 -429 0
21 93 429 0
c gate 430 -428 -429 0
-428 -430 0
-429 -430 0
428 429 430 0
c gate 431 -427 430 0
-427 -431 0
430 -431 0
427 -430 431 0
c gate 432 22 94 0
22 -432 0
94 -432 0
-22 -94 432 0
c gate 433 21 93 0
21 -433 0
93 -433 0
-21 -93 433 0
c gate 434 -432 -433 0
-432 -434 0
-433 -434 0
432 433 434 0
c gate 435 -24 -96 0
-24 -435 0
-96 -435 0
24 96 435 0
c gate 436 -18 -90 0
-18 -436 0
-90 -436 0
18 90 436 0
c gate 437 -435 -436 0
-435 -437 0
-436 -437 0
435 436 437 0
c gate 438 434 437 0
434 -438 0
437 -438 0
-434 -437 438 0
c gate 439 431 438 0
431 -439 0
438 -439 0
-431 -438 439 0
c gate 440 -426 439 0
-426 -440 0
439 -440 0
426 -439 440 0
c gate 441 20 92 0
20 -441 0
92 -441 0
-20 -92 441 0
c gate 442 91 424 0
91 -442 0
424 -442 0
-91 -424 442 0
c gate 443 -441 -442 0
-441 -443 0
-442 -443 0
441 442 443 0
c gate 444 17 89 0
17 -444 0
89 -444 0
-17 -89 444 0
c gate 445 18 90 0
18 -445 0
90 -445 0
-18 -90 445 0
c gate 446 -444 -445 0
-444 -446 0
-445 -446 0
444 445 446 0
c gate 447 -23 -95 0
-23 -447 0
-95 -447 0
23 95 447 0
c gate 448 -22 -94 0
-22 -448 0
-94 -448 0
22 94 448 0
c gate 449 -447 -448 0
-447 -449 0
-448 -449 0
447 448 449 0
c gate 450 24 96 0
24 -450 0
96 -450 0
-24 -96 450 0
c gate 451 23 95 0
23 -451 0
95 -451 0
-23 -95 451 0
c gate 452 -450 -451 0
-450 -452 0
-451 -452 0
450 451 452 0
c gate 453 449 452 0
449 -453 0
452 -453 0
-449 -452 453 0
c gate 454 446 453 0
446 -454 0
453 -454 0
-446 -453 454 0
c gate 455 443 454 0
443 -455 0
454 -455 0
-443 -454 455 0
c gate 456 440 455 0
440 -456 0
455 -456 0
-440 -455 456 0
c gate 457 -422 456 0
-422 -457 0
456 -457 0
422 -456 457 0
c gate 458 -436 -446 0
-436 -458 0
-446 -458 0
436 446 458 0
c gate 459 -426 458 0
-426 -459 0
458 -459 0
426 -458 459 0
c gate 460 443 -459 0
443 -460 0
-459 -460 0
-443 459 460 0
c gate 461 -429 -460 0
-429 -461 0
-460 -461 0
429 460 461 0
c gate 462 434 -461 0
434 -462 0
-461 -462 0
-434 461 462 0
c gate 463 449 -462 0
449 -463 0
-462 -463 0
-449 462 463 0
c gate 464 452 -463 0
452 -464 0
-463 -464 0
-452 463 464 0
c gate 465 -435 -464 0
-435 -465 0
-464 -465 0
435 464 465 0
c gate 466 -457 -465 0
-457 -466 0
-465 -466 0
457 465 466 0
c gate 467 360 -466 0
360 -467 0
-466 -467 0
-360 466 467 0
c gate 468 -350 -467 0
-350 -468 0
-467 -468 0
350 467 468 0
c gate 469 320 -468 0
320 -469 0
-468 -469 0
-320 468 469 0
c gate 470 -311 -469 0
-311 -470 0
-469 -470 0
311 469 470 0
c gate 471 -41 -113 0
-41 -471 0
-113 -471 0
41 113 471 0
c gate 472 264 -471 0
264 -472 0
-471 -472 0
-264 471 472 0
c gate 473 261 472 0
261 -473 0
472 -473 0
-261 -472 473 0
c gate 474 251 473 0
251 -474 0
473 -474 0
-251 -473 474 0
c gate 475 -470 474 0
-470 -475 0
474 -475 0
470 -474 475 0
c gate 476 279 475 0
279 -476 0
475 -476 0
-279 -475 476 0
c gate 477 281 -476 0
281 -477 0
-476 -477 0
-281 476 477 0
c gate 478 -57 -129 0
-57 -478 0
-129 -478 0
57 129 478 0
c gate 479 156 -478 0
156 -479 0
-478 -479 0
-156 478 479 0
c gate 480 161 479 0
161 -480 0
479 -480 0
-161 -479 480 0
c gate 481 178 480 0
178 -481 0
480 -481 0
-178 -480 481 0
c gate 482 -477 481 0
-477 -482 0
481 -482 0
477 -481 482 0
c gate 483 183 -482 0
183 -483 0
-482 -483 0
-183 482 483 0
c gate 484 72 144 0
72 -484 0
144 -484 0
-72 -144 484 0
c gate 485 71 143 0
71 -485 0
143 -485 0
-71 -143 485 0
c gate 486 -484 -485 0
-484 -486 0
-485 -486 0
484 485 486 0
c gate 487 -72 -144 0
-72 -487 0
-144 -487 0
72 144 487 0
c gate 488 -71 -143 0
-71 -488 0
-143 -488 0
71 143 488 0
c gate 489 -487 -488 0
-487 -489 0
-488 -489 0
487 488 489 0
c gate 490 486 489 0
486 -490 0
489 -490 0
-486 -489 490 0
c gate 491 -70 -142 0
-70 -491 0
-142 -491 0
70 142 491 0
c gate 492 -148 -491 0
-148 -492 0
-491 -492 0
148 491 492 0
c gate 493 147 492 0
147 -493 0
492 -493 0
-147 -492 493 0
c gate 494 490 493 0
490 -494 0
493 -494 0
-490 -493 494 0
c gate 495 199 494 0
199 -495 0
494 -495 0
-199 -494 495 0
c gate 496 -483 495 0
-483 -496 0
495 -496 0
483 -495 496 0
c gate 497 -205 496 0
-205 -497 0
496 -497 0
205 -496 497 0
c PO
497 0
